
Gurobi 8.1.0 (mac64, Python) logging started Thu Feb 28 00:20:28 2019

Academic license - for non-commercial use only
Optimize a model with 49 rows, 26 columns and 218 nonzeros
Coefficient statistics:
  Matrix range     [6e-02, 2e+00]
  Objective range  [5e-02, 5e-02]
  Bounds range     [0e+00, 0e+00]
  RHS range        [6e-02, 4e+00]
Presolve removed 9 rows and 1 columns
Presolve time: 0.02s
Presolved: 40 rows, 25 columns, 180 nonzeros

Iteration    Objective       Primal Inf.    Dual Inf.      Time
       0      handle free variables                          0s
       5    0.0000000e+00   0.000000e+00   0.000000e+00      0s

Solved in 5 iterations and 0.03 seconds
Optimal objective  0.000000000e+00
Optimize a model with 49 rows, 30 columns and 338 nonzeros
Coefficient statistics:
  Matrix range     [2e-02, 4e+00]
  Objective range  [5e-02, 5e-02]
  Bounds range     [0e+00, 0e+00]
  RHS range        [2e-02, 9e+00]
Presolve removed 6 rows and 0 columns
Presolve time: 0.01s
Presolved: 43 rows, 30 columns, 302 nonzeros

Iteration    Objective       Primal Inf.    Dual Inf.      Time
       0      handle free variables                          0s
      10    0.0000000e+00   0.000000e+00   0.000000e+00      0s

Solved in 10 iterations and 0.03 seconds
Optimal objective  0.000000000e+00
Optimize a model with 49 rows, 30 columns and 338 nonzeros
Coefficient statistics:
  Matrix range     [2e-02, 4e+00]
  Objective range  [5e-02, 5e-02]
  Bounds range     [0e+00, 0e+00]
  RHS range        [2e-02, 4e+00]
Presolve removed 6 rows and 0 columns
Presolve time: 0.02s
Presolved: 43 rows, 30 columns, 302 nonzeros

Iteration    Objective       Primal Inf.    Dual Inf.      Time
       0      handle free variables                          0s
      27    6.5625000e-02   0.000000e+00   0.000000e+00      0s

Solved in 27 iterations and 0.03 seconds
Optimal objective  6.562500000e-02
Optimize a model with 49 rows, 30 columns and 338 nonzeros
Coefficient statistics:
  Matrix range     [2e-02, 4e+00]
  Objective range  [5e-02, 5e-02]
  Bounds range     [0e+00, 0e+00]
  RHS range        [2e-01, 2e+00]
Presolve removed 6 rows and 0 columns
Presolve time: 0.01s
Presolved: 43 rows, 30 columns, 302 nonzeros

Iteration    Objective       Primal Inf.    Dual Inf.      Time
       0      handle free variables                          0s
      10    0.0000000e+00   0.000000e+00   0.000000e+00      0s

Solved in 10 iterations and 0.01 seconds
Optimal objective  0.000000000e+00
Optimize a model with 144 rows, 55 columns and 1528 nonzeros
Coefficient statistics:
  Matrix range     [2e-04, 9e+00]
  Objective range  [3e-02, 3e-02]
  Bounds range     [0e+00, 0e+00]
  RHS range        [4e-01, 1e+00]
Presolve removed 58 rows and 0 columns
Presolve time: 0.02s
Presolved: 86 rows, 55 columns, 890 nonzeros

Iteration    Objective       Primal Inf.    Dual Inf.      Time
       0      handle free variables                          0s
      15    0.0000000e+00   0.000000e+00   0.000000e+00      0s

Solved in 15 iterations and 0.03 seconds
Optimal objective  0.000000000e+00
Optimize a model with 144 rows, 55 columns and 1528 nonzeros
Coefficient statistics:
  Matrix range     [2e-04, 9e+00]
  Objective range  [3e-02, 3e-02]
  Bounds range     [0e+00, 0e+00]
  RHS range        [1e-01, 1e+00]
Presolve removed 58 rows and 0 columns
Presolve time: 0.01s
Presolved: 86 rows, 55 columns, 890 nonzeros

Iteration    Objective       Primal Inf.    Dual Inf.      Time
       0      handle free variables                          0s
      67    1.8888889e-02   0.000000e+00   0.000000e+00      0s

Solved in 67 iterations and 0.02 seconds
Optimal objective  1.888888889e-02
Optimize a model with 144 rows, 55 columns and 1528 nonzeros
Coefficient statistics:
  Matrix range     [2e-04, 9e+00]
  Objective range  [3e-02, 3e-02]
  Bounds range     [0e+00, 0e+00]
  RHS range        [1e-02, 1e+00]
Presolve removed 58 rows and 0 columns
Presolve time: 0.01s
Presolved: 86 rows, 55 columns, 890 nonzeros

Iteration    Objective       Primal Inf.    Dual Inf.      Time
       0      handle free variables                          0s
      67    1.8888889e-03   0.000000e+00   0.000000e+00      0s

Solved in 67 iterations and 0.03 seconds
Optimal objective  1.888888889e-03
Optimize a model with 144 rows, 85 columns and 4688 nonzeros
Coefficient statistics:
  Matrix range     [2e-08, 3e+01]
  Objective range  [3e-02, 3e-02]
  Bounds range     [0e+00, 0e+00]
  RHS range        [4e-01, 3e+00]
Presolve time: 0.01s
Presolved: 144 rows, 85 columns, 4688 nonzeros

Iteration    Objective       Primal Inf.    Dual Inf.      Time
       0      handle free variables                          0s
      93    1.8869761e-01   0.000000e+00   0.000000e+00      0s

Solved in 93 iterations and 0.03 seconds
Optimal objective  1.886976062e-01
Optimize a model with 232 rows, 103 columns and 2220 nonzeros
Coefficient statistics:
  Matrix range     [2e-04, 9e+00]
  Objective range  [3e-02, 3e-02]
  Bounds range     [0e+00, 0e+00]
  RHS range        [1e-01, 1e+00]
Presolve removed 66 rows and 8 columns
Presolve time: 0.02s
Presolved: 166 rows, 95 columns, 1494 nonzeros

Iteration    Objective       Primal Inf.    Dual Inf.      Time
       0      handle free variables                          0s
      15    0.0000000e+00   0.000000e+00   0.000000e+00      0s

Solved in 15 iterations and 0.03 seconds
Optimal objective  0.000000000e+00
Optimize a model with 232 rows, 103 columns and 2220 nonzeros
Coefficient statistics:
  Matrix range     [2e-04, 9e+00]
  Objective range  [3e-02, 3e-02]
  Bounds range     [0e+00, 0e+00]
  RHS range        [1e-03, 1e+00]
Presolve removed 66 rows and 8 columns
Presolve time: 0.01s
Presolved: 166 rows, 95 columns, 1494 nonzeros

Iteration    Objective       Primal Inf.    Dual Inf.      Time
       0      handle free variables                          0s
     129    2.5000000e-02   0.000000e+00   0.000000e+00      0s

Solved in 129 iterations and 0.03 seconds
Optimal objective  2.500000000e-02
Optimize a model with 49 rows, 26 columns and 218 nonzeros
Coefficient statistics:
  Matrix range     [6e-02, 2e+00]
  Objective range  [5e-02, 5e-02]
  Bounds range     [0e+00, 0e+00]
  RHS range        [6e-02, 4e+00]
Presolve removed 9 rows and 1 columns
Presolve time: 0.01s
Presolved: 40 rows, 25 columns, 180 nonzeros

Iteration    Objective       Primal Inf.    Dual Inf.      Time
       0      handle free variables                          0s
       5    0.0000000e+00   0.000000e+00   0.000000e+00      0s

Solved in 5 iterations and 0.01 seconds
Optimal objective  0.000000000e+00
Optimize a model with 49 rows, 26 columns and 218 nonzeros
Coefficient statistics:
  Matrix range     [6e-02, 2e+00]
  Objective range  [5e-02, 5e-02]
  Bounds range     [0e+00, 0e+00]
  RHS range        [6e-02, 5e+00]
Presolve removed 9 rows and 1 columns
Presolve time: 0.01s
Presolved: 40 rows, 25 columns, 180 nonzeros

Iteration    Objective       Primal Inf.    Dual Inf.      Time
       0      handle free variables                          0s
      20    2.1875000e-02   0.000000e+00   0.000000e+00      0s

Solved in 20 iterations and 0.02 seconds
Optimal objective  2.187500000e-02
Optimize a model with 49 rows, 30 columns and 338 nonzeros
Coefficient statistics:
  Matrix range     [2e-02, 4e+00]
  Objective range  [5e-02, 5e-02]
  Bounds range     [0e+00, 0e+00]
  RHS range        [2e-02, 5e+00]
Presolve removed 6 rows and 0 columns
Presolve time: 0.01s
Presolved: 43 rows, 30 columns, 302 nonzeros

Iteration    Objective       Primal Inf.    Dual Inf.      Time
       0      handle free variables                          0s
      19    9.3750000e-03   0.000000e+00   0.000000e+00      0s

Solved in 19 iterations and 0.01 seconds
Optimal objective  9.375000000e-03
Optimize a model with 49 rows, 30 columns and 338 nonzeros
Coefficient statistics:
  Matrix range     [2e-02, 4e+00]
  Objective range  [5e-02, 5e-02]
  Bounds range     [0e+00, 0e+00]
  RHS range        [2e-02, 5e+00]
Presolve removed 6 rows and 0 columns
Presolve time: 0.01s
Presolved: 43 rows, 30 columns, 302 nonzeros

Iteration    Objective       Primal Inf.    Dual Inf.      Time
       0      handle free variables                          0s
      19    9.3750000e-03   0.000000e+00   0.000000e+00      0s

Solved in 19 iterations and 0.01 seconds
Optimal objective  9.375000000e-03
Optimize a model with 49 rows, 30 columns and 338 nonzeros
Coefficient statistics:
  Matrix range     [2e-02, 4e+00]
  Objective range  [5e-02, 5e-02]
  Bounds range     [0e+00, 0e+00]
  RHS range        [2e-02, 5e+00]
Presolve removed 6 rows and 0 columns
Presolve time: 0.01s
Presolved: 43 rows, 30 columns, 302 nonzeros

Iteration    Objective       Primal Inf.    Dual Inf.      Time
       0      handle free variables                          0s
      19    9.3750000e-03   0.000000e+00   0.000000e+00      0s

Solved in 19 iterations and 0.01 seconds
Optimal objective  9.375000000e-03
Optimize a model with 49 rows, 30 columns and 338 nonzeros
Coefficient statistics:
  Matrix range     [2e-02, 4e+00]
  Objective range  [5e-02, 5e-02]
  Bounds range     [0e+00, 0e+00]
  RHS range        [2e-02, 5e+00]
Presolve removed 6 rows and 0 columns
Presolve time: 0.01s
Presolved: 43 rows, 30 columns, 302 nonzeros

Iteration    Objective       Primal Inf.    Dual Inf.      Time
       0      handle free variables                          0s
      29    7.8716216e-02   0.000000e+00   0.000000e+00      0s

Solved in 29 iterations and 0.01 seconds
Optimal objective  7.871621622e-02
Optimize a model with 49 rows, 30 columns and 338 nonzeros
Coefficient statistics:
  Matrix range     [2e-02, 4e+00]
  Objective range  [5e-02, 5e-02]
  Bounds range     [0e+00, 0e+00]
  RHS range        [2e-02, 5e+00]
Presolve removed 6 rows and 0 columns
Presolve time: 0.01s
Presolved: 43 rows, 30 columns, 302 nonzeros

Iteration    Objective       Primal Inf.    Dual Inf.      Time
       0      handle free variables                          0s
      30    7.8716216e-02   0.000000e+00   0.000000e+00      0s

Solved in 30 iterations and 0.02 seconds
Optimal objective  7.871621622e-02
Optimize a model with 49 rows, 30 columns and 338 nonzeros
Coefficient statistics:
  Matrix range     [2e-02, 4e+00]
  Objective range  [5e-02, 5e-02]
  Bounds range     [0e+00, 0e+00]
  RHS range        [6e-02, 5e+00]
Presolve removed 6 rows and 0 columns
Presolve time: 0.01s
Presolved: 43 rows, 30 columns, 302 nonzeros

Iteration    Objective       Primal Inf.    Dual Inf.      Time
       0      handle free variables                          0s
      32    1.3437500e-01   0.000000e+00   0.000000e+00      0s

Solved in 32 iterations and 0.02 seconds
Optimal objective  1.343750000e-01
Optimize a model with 49 rows, 30 columns and 338 nonzeros
Coefficient statistics:
  Matrix range     [2e-02, 4e+00]
  Objective range  [5e-02, 5e-02]
  Bounds range     [0e+00, 0e+00]
  RHS range        [6e-02, 3e+00]
Presolve removed 6 rows and 0 columns
Presolve time: 0.01s
Presolved: 43 rows, 30 columns, 302 nonzeros

Iteration    Objective       Primal Inf.    Dual Inf.      Time
       0      handle free variables                          0s
      31    1.5937500e-01   0.000000e+00   0.000000e+00      0s

Solved in 31 iterations and 0.02 seconds
Optimal objective  1.593750000e-01
Optimize a model with 49 rows, 30 columns and 338 nonzeros
Coefficient statistics:
  Matrix range     [2e-02, 4e+00]
  Objective range  [5e-02, 5e-02]
  Bounds range     [0e+00, 0e+00]
  RHS range        [6e-02, 3e+00]
Presolve removed 6 rows and 0 columns
Presolve time: 0.01s
Presolved: 43 rows, 30 columns, 302 nonzeros

Iteration    Objective       Primal Inf.    Dual Inf.      Time
       0      handle free variables                          0s
      31    1.5937500e-01   0.000000e+00   0.000000e+00      0s

Solved in 31 iterations and 0.02 seconds
Optimal objective  1.593750000e-01
Optimize a model with 49 rows, 30 columns and 338 nonzeros
Coefficient statistics:
  Matrix range     [2e-02, 4e+00]
  Objective range  [5e-02, 5e-02]
  Bounds range     [0e+00, 0e+00]
  RHS range        [2e-02, 3e+00]
Presolve removed 6 rows and 0 columns
Presolve time: 0.01s
Presolved: 43 rows, 30 columns, 302 nonzeros

Iteration    Objective       Primal Inf.    Dual Inf.      Time
       0      handle free variables                          0s
      29    1.3750000e-01   0.000000e+00   0.000000e+00      0s

Solved in 29 iterations and 0.02 seconds
Optimal objective  1.375000000e-01
Optimize a model with 49 rows, 30 columns and 338 nonzeros
Coefficient statistics:
  Matrix range     [2e-02, 4e+00]
  Objective range  [5e-02, 5e-02]
  Bounds range     [0e+00, 0e+00]
  RHS range        [6e-02, 4e+00]
Presolve removed 6 rows and 0 columns
Presolve time: 0.01s
Presolved: 43 rows, 30 columns, 302 nonzeros

Iteration    Objective       Primal Inf.    Dual Inf.      Time
       0      handle free variables                          0s
      30    1.4687500e-01   0.000000e+00   0.000000e+00      0s

Solved in 30 iterations and 0.01 seconds
Optimal objective  1.468750000e-01
Optimize a model with 49 rows, 30 columns and 338 nonzeros
Coefficient statistics:
  Matrix range     [2e-02, 4e+00]
  Objective range  [5e-02, 5e-02]
  Bounds range     [0e+00, 0e+00]
  RHS range        [6e-02, 4e+00]
Presolve removed 6 rows and 0 columns
Presolve time: 0.01s
Presolved: 43 rows, 30 columns, 302 nonzeros

Iteration    Objective       Primal Inf.    Dual Inf.      Time
       0      handle free variables                          0s
      30    1.4687500e-01   0.000000e+00   0.000000e+00      0s

Solved in 30 iterations and 0.01 seconds
Optimal objective  1.468750000e-01
Optimize a model with 49 rows, 48 columns and 848 nonzeros
Coefficient statistics:
  Matrix range     [2e-04, 9e+00]
  Objective range  [5e-02, 5e-02]
  Bounds range     [0e+00, 0e+00]
  RHS range        [2e-04, 4e+00]
Presolve time: 0.01s
Presolved: 49 rows, 48 columns, 848 nonzeros

Iteration    Objective       Primal Inf.    Dual Inf.      Time
       0      handle free variables                          0s
      28    1.0000000e-01   0.000000e+00   0.000000e+00      0s

Solved in 28 iterations and 0.01 seconds
Optimal objective  1.000000000e-01
Optimize a model with 49 rows, 48 columns and 848 nonzeros
Coefficient statistics:
  Matrix range     [2e-04, 9e+00]
  Objective range  [5e-02, 5e-02]
  Bounds range     [0e+00, 0e+00]
  RHS range        [2e-04, 4e+00]
Presolve time: 0.00s
Presolved: 49 rows, 48 columns, 848 nonzeros

Iteration    Objective       Primal Inf.    Dual Inf.      Time
       0      handle free variables                          0s
      28    1.0000000e-01   0.000000e+00   0.000000e+00      0s

Solved in 28 iterations and 0.01 seconds
Optimal objective  1.000000000e-01
Optimize a model with 49 rows, 48 columns and 848 nonzeros
Coefficient statistics:
  Matrix range     [2e-04, 9e+00]
  Objective range  [5e-02, 5e-02]
  Bounds range     [0e+00, 0e+00]
  RHS range        [2e-04, 4e+00]
Presolve time: 0.01s
Presolved: 49 rows, 48 columns, 848 nonzeros

Iteration    Objective       Primal Inf.    Dual Inf.      Time
       0      handle free variables                          0s
      28    1.0000000e-01   0.000000e+00   0.000000e+00      0s

Solved in 28 iterations and 0.02 seconds
Optimal objective  1.000000000e-01
Optimize a model with 49 rows, 26 columns and 218 nonzeros
Coefficient statistics:
  Matrix range     [6e-02, 2e+00]
  Objective range  [5e-02, 5e-02]
  Bounds range     [0e+00, 0e+00]
  RHS range        [6e-02, 4e+00]
Presolve removed 9 rows and 1 columns
Presolve time: 0.01s
Presolved: 40 rows, 25 columns, 180 nonzeros

Iteration    Objective       Primal Inf.    Dual Inf.      Time
       0      handle free variables                          0s
      24    2.3333333e-01   0.000000e+00   0.000000e+00      0s

Solved in 24 iterations and 0.01 seconds
Optimal objective  2.333333333e-01

Gurobi 8.1.0 (mac64, Python) logging started Tue Mar 26 01:14:25 2019

Academic license - for non-commercial use only
Optimize a model with 49 rows, 26 columns and 218 nonzeros
Coefficient statistics:
  Matrix range     [6e-02, 2e+00]
  Objective range  [5e-02, 5e-02]
  Bounds range     [0e+00, 0e+00]
  RHS range        [6e-02, 4e+00]
Presolve removed 9 rows and 1 columns
Presolve time: 0.02s
Presolved: 40 rows, 25 columns, 180 nonzeros

Iteration    Objective       Primal Inf.    Dual Inf.      Time
       0      handle free variables                          0s
      24    2.3333333e-01   0.000000e+00   0.000000e+00      0s

Solved in 24 iterations and 0.03 seconds
Optimal objective  2.333333333e-01
Optimize a model with 49 rows, 26 columns and 218 nonzeros
Coefficient statistics:
  Matrix range     [6e-02, 2e+00]
  Objective range  [5e-02, 5e-02]
  Bounds range     [0e+00, 0e+00]
  RHS range        [6e-02, 4e+00]
Presolve removed 9 rows and 1 columns
Presolve time: 0.02s
Presolved: 40 rows, 25 columns, 180 nonzeros

Iteration    Objective       Primal Inf.    Dual Inf.      Time
       0      handle free variables                          0s
      24    2.3333333e-01   0.000000e+00   0.000000e+00      0s

Solved in 24 iterations and 0.03 seconds
Optimal objective  2.333333333e-01
Optimize a model with 49 rows, 26 columns and 218 nonzeros
Coefficient statistics:
  Matrix range     [6e-02, 2e+00]
  Objective range  [5e-02, 5e-02]
  Bounds range     [0e+00, 0e+00]
  RHS range        [6e-02, 4e+00]
Presolve removed 9 rows and 1 columns
Presolve time: 0.01s
Presolved: 40 rows, 25 columns, 180 nonzeros

Iteration    Objective       Primal Inf.    Dual Inf.      Time
       0      handle free variables                          0s
      24    2.3333333e-01   0.000000e+00   0.000000e+00      0s

Solved in 24 iterations and 0.02 seconds
Optimal objective  2.333333333e-01
Optimize a model with 64 rows, 30 columns and 276 nonzeros
Coefficient statistics:
  Matrix range     [4e-02, 2e+00]
  Objective range  [4e-02, 4e-02]
  Bounds range     [0e+00, 0e+00]
  RHS range        [4e-02, 4e+00]
Presolve removed 16 rows and 1 columns
Presolve time: 0.01s
Presolved: 48 rows, 29 columns, 220 nonzeros

Iteration    Objective       Primal Inf.    Dual Inf.      Time
       0      handle free variables                          0s
      28    2.2916667e-01   0.000000e+00   0.000000e+00      0s

Solved in 28 iterations and 0.02 seconds
Optimal objective  2.291666667e-01
Optimize a model with 64 rows, 30 columns and 276 nonzeros
Coefficient statistics:
  Matrix range     [4e-02, 2e+00]
  Objective range  [4e-02, 4e-02]
  Bounds range     [0e+00, 0e+00]
  RHS range        [4e-02, 4e+00]
Presolve removed 16 rows and 1 columns
Presolve time: 0.01s
Presolved: 48 rows, 29 columns, 220 nonzeros

Iteration    Objective       Primal Inf.    Dual Inf.      Time
       0      handle free variables                          0s
      28    2.2916667e-01   0.000000e+00   0.000000e+00      0s

Solved in 28 iterations and 0.02 seconds
Optimal objective  2.291666667e-01
Optimize a model with 64 rows, 30 columns and 276 nonzeros
Coefficient statistics:
  Matrix range     [4e-02, 2e+00]
  Objective range  [4e-02, 4e-02]
  Bounds range     [0e+00, 0e+00]
  RHS range        [4e-02, 4e+00]
Presolve removed 16 rows and 1 columns
Presolve time: 0.01s
Presolved: 48 rows, 29 columns, 220 nonzeros

Iteration    Objective       Primal Inf.    Dual Inf.      Time
       0      handle free variables                          0s
      28    2.2916667e-01   0.000000e+00   0.000000e+00      0s

Solved in 28 iterations and 0.02 seconds
Optimal objective  2.291666667e-01
Optimize a model with 64 rows, 30 columns and 276 nonzeros
Coefficient statistics:
  Matrix range     [4e-02, 2e+00]
  Objective range  [4e-02, 4e-02]
  Bounds range     [0e+00, 0e+00]
  RHS range        [4e-02, 4e+00]
Presolve removed 16 rows and 1 columns
Presolve time: 0.02s
Presolved: 48 rows, 29 columns, 220 nonzeros

Iteration    Objective       Primal Inf.    Dual Inf.      Time
       0      handle free variables                          0s
      28    2.2916667e-01   0.000000e+00   0.000000e+00      0s

Solved in 28 iterations and 0.03 seconds
Optimal objective  2.291666667e-01
Optimize a model with 76 rows, 55 columns and 644 nonzeros
Coefficient statistics:
  Matrix range     [1e-02, 2e+01]
  Objective range  [6e-02, 6e-02]
  Bounds range     [0e+00, 0e+00]
  RHS range        [2e-01, 9e-01]
Presolve removed 40 rows and 24 columns
Presolve time: 0.01s
Presolved: 36 rows, 31 columns, 384 nonzeros

Iteration    Objective       Primal Inf.    Dual Inf.      Time
       0      handle free variables                          0s
Extra 2 simplex iterations after uncrush
      15    0.0000000e+00   0.000000e+00   0.000000e+00      0s

Solved in 15 iterations and 0.03 seconds
Optimal objective  0.000000000e+00
Optimize a model with 76 rows, 50 columns and 470 nonzeros
Coefficient statistics:
  Matrix range     [4e-02, 4e+00]
  Objective range  [6e-02, 6e-02]
  Bounds range     [0e+00, 0e+00]
  RHS range        [4e-01, 2e+01]
Presolve removed 9 rows and 8 columns
Presolve time: 0.01s
Presolved: 67 rows, 42 columns, 424 nonzeros

Iteration    Objective       Primal Inf.    Dual Inf.      Time
       0      handle free variables                          0s
      15    0.0000000e+00   0.000000e+00   0.000000e+00      0s

Solved in 15 iterations and 0.02 seconds
Optimal objective  0.000000000e+00
Optimize a model with 92 rows, 63 columns and 824 nonzeros
Coefficient statistics:
  Matrix range     [4e-03, 2e+01]
  Objective range  [5e-02, 5e-02]
  Bounds range     [0e+00, 0e+00]
  RHS range        [2e-01, 9e-01]
Presolve removed 48 rows and 28 columns
Presolve time: 0.01s
Presolved: 44 rows, 35 columns, 492 nonzeros

Iteration    Objective       Primal Inf.    Dual Inf.      Time
       0      handle free variables                          0s
      15    0.0000000e+00   0.000000e+00   0.000000e+00      0s

Solved in 15 iterations and 0.02 seconds
Optimal objective  0.000000000e+00
Optimize a model with 97 rows, 63 columns and 869 nonzeros
Coefficient statistics:
  Matrix range     [4e-03, 2e+01]
  Objective range  [5e-02, 5e-02]
  Bounds range     [0e+00, 0e+00]
  RHS range        [2e-01, 1e+00]
Presolve removed 51 rows and 28 columns
Presolve time: 0.01s
Presolved: 46 rows, 35 columns, 510 nonzeros

Iteration    Objective       Primal Inf.    Dual Inf.      Time
       0      handle free variables                          0s
      26    4.1666667e-04   0.000000e+00   0.000000e+00      0s

Solved in 26 iterations and 0.02 seconds
Optimal objective  4.166666667e-04
Optimize a model with 97 rows, 63 columns and 869 nonzeros
Coefficient statistics:
  Matrix range     [4e-03, 2e+01]
  Objective range  [5e-02, 5e-02]
  Bounds range     [0e+00, 0e+00]
  RHS range        [2e-01, 1e+00]
Presolve removed 51 rows and 28 columns
Presolve time: 0.01s
Presolved: 46 rows, 35 columns, 510 nonzeros

Iteration    Objective       Primal Inf.    Dual Inf.      Time
       0      handle free variables                          0s
      26    4.1666667e-04   0.000000e+00   0.000000e+00      0s

Solved in 26 iterations and 0.02 seconds
Optimal objective  4.166666667e-04
Optimize a model with 76 rows, 55 columns and 644 nonzeros
Coefficient statistics:
  Matrix range     [1e-02, 2e+01]
  Objective range  [6e-02, 6e-02]
  Bounds range     [0e+00, 0e+00]
  RHS range        [2e-01, 9e-01]
Presolve removed 40 rows and 24 columns
Presolve time: 0.01s
Presolved: 36 rows, 31 columns, 384 nonzeros

Iteration    Objective       Primal Inf.    Dual Inf.      Time
       0      handle free variables                          0s
Extra 2 simplex iterations after uncrush
      15    0.0000000e+00   0.000000e+00   0.000000e+00      0s

Solved in 15 iterations and 0.02 seconds
Optimal objective  0.000000000e+00
Optimize a model with 76 rows, 50 columns and 470 nonzeros
Coefficient statistics:
  Matrix range     [4e-02, 4e+00]
  Objective range  [6e-02, 6e-02]
  Bounds range     [0e+00, 0e+00]
  RHS range        [4e-01, 2e+01]
Presolve removed 9 rows and 8 columns
Presolve time: 0.01s
Presolved: 67 rows, 42 columns, 424 nonzeros

Iteration    Objective       Primal Inf.    Dual Inf.      Time
       0      handle free variables                          0s
      15    0.0000000e+00   0.000000e+00   0.000000e+00      0s

Solved in 15 iterations and 0.01 seconds
Optimal objective  0.000000000e+00
Optimize a model with 97 rows, 63 columns and 869 nonzeros
Coefficient statistics:
  Matrix range     [4e-03, 2e+01]
  Objective range  [5e-02, 5e-02]
  Bounds range     [0e+00, 0e+00]
  RHS range        [2e-01, 1e+00]
Presolve removed 51 rows and 28 columns
Presolve time: 0.01s
Presolved: 46 rows, 35 columns, 510 nonzeros

Iteration    Objective       Primal Inf.    Dual Inf.      Time
       0      handle free variables                          0s
      26    4.1666667e-04   0.000000e+00   0.000000e+00      0s

Solved in 26 iterations and 0.01 seconds
Optimal objective  4.166666667e-04

Gurobi 8.1.0 (mac64, Python) logging started Thu Mar 28 02:40:32 2019

Academic license - for non-commercial use only
Optimize a model with 97 rows, 63 columns and 869 nonzeros
Coefficient statistics:
  Matrix range     [4e-03, 2e+01]
  Objective range  [5e-02, 5e-02]
  Bounds range     [0e+00, 0e+00]
  RHS range        [2e-01, 1e+00]
Presolve removed 51 rows and 28 columns
Presolve time: 0.01s
Presolved: 46 rows, 35 columns, 510 nonzeros

Iteration    Objective       Primal Inf.    Dual Inf.      Time
       0      handle free variables                          0s
      26    4.1666667e-04   0.000000e+00   0.000000e+00      0s

Solved in 26 iterations and 0.01 seconds
Optimal objective  4.166666667e-04
Optimize a model with 76 rows, 55 columns and 644 nonzeros
Coefficient statistics:
  Matrix range     [1e-02, 2e+01]
  Objective range  [6e-02, 6e-02]
  Bounds range     [0e+00, 0e+00]
  RHS range        [2e-01, 9e-01]
Presolve removed 40 rows and 24 columns
Presolve time: 0.01s
Presolved: 36 rows, 31 columns, 384 nonzeros

Iteration    Objective       Primal Inf.    Dual Inf.      Time
       0      handle free variables                          0s
Extra 2 simplex iterations after uncrush
      15    0.0000000e+00   0.000000e+00   0.000000e+00      0s

Solved in 15 iterations and 0.02 seconds
Optimal objective  0.000000000e+00
Optimize a model with 97 rows, 63 columns and 869 nonzeros
Coefficient statistics:
  Matrix range     [4e-03, 2e+01]
  Objective range  [5e-02, 5e-02]
  Bounds range     [0e+00, 0e+00]
  RHS range        [2e-01, 1e+00]
Presolve removed 51 rows and 28 columns
Presolve time: 0.01s
Presolved: 46 rows, 35 columns, 510 nonzeros

Iteration    Objective       Primal Inf.    Dual Inf.      Time
       0      handle free variables                          0s
      26    4.1666667e-04   0.000000e+00   0.000000e+00      0s

Solved in 26 iterations and 0.01 seconds
Optimal objective  4.166666667e-04
Optimize a model with 97 rows, 63 columns and 869 nonzeros
Coefficient statistics:
  Matrix range     [4e-03, 2e+01]
  Objective range  [5e-02, 5e-02]
  Bounds range     [0e+00, 0e+00]
  RHS range        [2e-01, 1e+00]
Presolve removed 51 rows and 28 columns
Presolve time: 0.01s
Presolved: 46 rows, 35 columns, 510 nonzeros

Iteration    Objective       Primal Inf.    Dual Inf.      Time
       0      handle free variables                          0s
      26    4.1666667e-04   0.000000e+00   0.000000e+00      0s

Solved in 26 iterations and 0.02 seconds
Optimal objective  4.166666667e-04
Optimize a model with 97 rows, 63 columns and 869 nonzeros
Coefficient statistics:
  Matrix range     [4e-03, 2e+01]
  Objective range  [5e-02, 5e-02]
  Bounds range     [0e+00, 0e+00]
  RHS range        [2e-01, 1e+00]
Presolve removed 51 rows and 28 columns
Presolve time: 0.02s
Presolved: 46 rows, 35 columns, 510 nonzeros

Iteration    Objective       Primal Inf.    Dual Inf.      Time
       0      handle free variables                          0s
      26    4.1666667e-04   0.000000e+00   0.000000e+00      0s

Solved in 26 iterations and 0.03 seconds
Optimal objective  4.166666667e-04
Optimize a model with 97 rows, 63 columns and 842 nonzeros
Coefficient statistics:
  Matrix range     [4e-03, 6e+00]
  Objective range  [5e-02, 5e-02]
  Bounds range     [0e+00, 0e+00]
  RHS range        [2e-01, 1e+00]
Presolve removed 51 rows and 28 columns
Presolve time: 0.01s
Presolved: 46 rows, 35 columns, 492 nonzeros

Iteration    Objective       Primal Inf.    Dual Inf.      Time
       0      handle free variables                          0s
Extra 2 simplex iterations after uncrush
      26    7.1775931e-04   0.000000e+00   0.000000e+00      0s

Solved in 26 iterations and 0.02 seconds
Optimal objective  7.177593068e-04
Optimize a model with 97 rows, 63 columns and 842 nonzeros
Coefficient statistics:
  Matrix range     [4e-03, 6e+00]
  Objective range  [5e-02, 5e-02]
  Bounds range     [0e+00, 0e+00]
  RHS range        [2e-01, 1e+00]
Presolve removed 51 rows and 28 columns
Presolve time: 0.01s
Presolved: 46 rows, 35 columns, 492 nonzeros

Iteration    Objective       Primal Inf.    Dual Inf.      Time
       0      handle free variables                          0s
Extra 2 simplex iterations after uncrush
      26    7.1775931e-04   0.000000e+00   0.000000e+00      0s

Solved in 26 iterations and 0.02 seconds
Optimal objective  7.177593068e-04
Optimize a model with 97 rows, 63 columns and 842 nonzeros
Coefficient statistics:
  Matrix range     [4e-03, 6e+00]
  Objective range  [5e-02, 5e-02]
  Bounds range     [0e+00, 0e+00]
  RHS range        [2e-01, 1e+00]
Presolve removed 51 rows and 28 columns
Presolve time: 0.01s
Presolved: 46 rows, 35 columns, 492 nonzeros

Iteration    Objective       Primal Inf.    Dual Inf.      Time
       0      handle free variables                          0s
Extra 2 simplex iterations after uncrush
      26    7.1775931e-04   0.000000e+00   0.000000e+00      0s

Solved in 26 iterations and 0.02 seconds
Optimal objective  7.177593068e-04
Optimize a model with 97 rows, 63 columns and 842 nonzeros
Coefficient statistics:
  Matrix range     [4e-03, 6e+00]
  Objective range  [5e-02, 5e-02]
  Bounds range     [0e+00, 0e+00]
  RHS range        [2e-01, 1e+00]
Presolve removed 51 rows and 28 columns
Presolve time: 0.01s
Presolved: 46 rows, 35 columns, 492 nonzeros

Iteration    Objective       Primal Inf.    Dual Inf.      Time
       0      handle free variables                          0s
Extra 2 simplex iterations after uncrush
      26    7.1775931e-04   0.000000e+00   0.000000e+00      0s

Solved in 26 iterations and 0.03 seconds
Optimal objective  7.177593068e-04
Optimize a model with 97 rows, 63 columns and 842 nonzeros
Coefficient statistics:
  Matrix range     [4e-03, 6e+00]
  Objective range  [5e-02, 5e-02]
  Bounds range     [0e+00, 0e+00]
  RHS range        [2e-01, 1e+00]
Presolve removed 51 rows and 28 columns
Presolve time: 0.01s
Presolved: 46 rows, 35 columns, 492 nonzeros

Iteration    Objective       Primal Inf.    Dual Inf.      Time
       0      handle free variables                          0s
Extra 2 simplex iterations after uncrush
      26    7.1775931e-04   0.000000e+00   0.000000e+00      0s

Solved in 26 iterations and 0.02 seconds
Optimal objective  7.177593068e-04
Optimize a model with 97 rows, 63 columns and 842 nonzeros
Coefficient statistics:
  Matrix range     [4e-03, 6e+00]
  Objective range  [5e-02, 5e-02]
  Bounds range     [0e+00, 0e+00]
  RHS range        [2e-01, 1e+00]
Presolve removed 51 rows and 28 columns
Presolve time: 0.01s
Presolved: 46 rows, 35 columns, 492 nonzeros

Iteration    Objective       Primal Inf.    Dual Inf.      Time
       0      handle free variables                          0s
Extra 2 simplex iterations after uncrush
      26    7.1775931e-04   0.000000e+00   0.000000e+00      0s

Solved in 26 iterations and 0.03 seconds
Optimal objective  7.177593068e-04
Optimize a model with 97 rows, 63 columns and 842 nonzeros
Coefficient statistics:
  Matrix range     [4e-03, 6e+00]
  Objective range  [5e-02, 5e-02]
  Bounds range     [0e+00, 0e+00]
  RHS range        [2e-01, 1e+00]
Presolve removed 51 rows and 28 columns
Presolve time: 0.01s
Presolved: 46 rows, 35 columns, 492 nonzeros

Iteration    Objective       Primal Inf.    Dual Inf.      Time
       0      handle free variables                          0s
Extra 2 simplex iterations after uncrush
      26    7.1775931e-04   0.000000e+00   0.000000e+00      0s

Solved in 26 iterations and 0.02 seconds
Optimal objective  7.177593068e-04
Optimize a model with 97 rows, 63 columns and 842 nonzeros
Coefficient statistics:
  Matrix range     [4e-03, 6e+00]
  Objective range  [5e-02, 5e-02]
  Bounds range     [0e+00, 0e+00]
  RHS range        [2e-01, 1e+00]
Presolve removed 51 rows and 28 columns
Presolve time: 0.02s
Presolved: 46 rows, 35 columns, 492 nonzeros

Iteration    Objective       Primal Inf.    Dual Inf.      Time
       0      handle free variables                          0s
Extra 2 simplex iterations after uncrush
      26    7.1775931e-04   0.000000e+00   0.000000e+00      0s

Solved in 26 iterations and 0.04 seconds
Optimal objective  7.177593068e-04
